treewidth/data/RingedTree_6.gr
p tw 63 123
1 2
1 27
2 13
2 10
2 27
13 24
13 3
13 10
13 44
24 35
24 61
24 3
24 53
35 46
35 57
35 61
35 58
46 57
46 60
57 62
61 62
61 63
61 4
62 63
63 5
3 4
3 7
3 11
4 5
4 6
4 7
5 6
6 8
7 8
7 9
7 12
8 9
9 14
10 11
10 19
10 28
11 12
11 16
11 19
12 14
12 15
12 16
14 15
15 17
16 17
16 18
16 20
17 18
18 21
19 20
19 23
19 29
20 21
20 22
20 23
21 22
22 25
23 25
23 26
23 30
25 26
26 31
27 28
27 44
28 29
28 37
28 44
29 30
29 33
29 37
30 31
30 32
30 33
31 32
32 34
33 34
33 36
33 38
34 36
36 39
37 38
37 41
37 45
38 39
38 40
38 41
39 40
40 42
41 42
41 43
41 47
42 43
43 48
44 45
44 53
45 47
45 50
45 53
47 48
47 49
47 50
48 49
49 51
50 51
50 52
50 54
51 52
52 55
53 54
53 58
54 55
54 56
54 58
55 56
56 59
58 59
58 60
59 60
