treewidth/data/RingedTree_6.td
c width = 9, time = 16.665095
s td 25 10 63
b 1 11 13 20 25 41 42 45 53 58 60
b 2 11 13 19 20 25 28 41 42 45 53
b 3 2 10 11 13 19 27 28 44 45 53
b 4 19 20 25 28 29 36 38 41 42 45
b 5 19 20 25 26 29 30 31 34 36 38
b 6 19 20 23 25 26 30
b 7 30 31 32 34
b 8 29 30 33 34 36 38
b 9 28 29 37 38 41 45
b 10 36 38 39 40 42
b 11 4 6 11 13 20 24 25 53 58 60
b 12 4 6 11 13 15 16 17 20 24 25
b 13 4 6 7 9 11 13 14 15 16 24
b 14 3 4 7 11 13 24
b 15 6 7 8 9
b 16 7 11 12 14 15 16
b 17 16 17 18 20 21 22 25
b 18 4 6 24 57 58 60 61 62
b 19 4 5 6 61 62 63
b 20 24 35 46 57 58 60 61
b 21 41 42 45 49 50 51 53 55 58 60
b 22 41 42 43 45 47 48 49 50
b 23 50 51 52 55
b 24 50 53 54 55 56 58 59 60
b 25 27 2 1
2 3
5 6
5 7
5 8
4 5
4 9
4 10
2 4
1 2
13 14
13 15
13 16
12 13
12 17
11 12
18 19
18 20
11 18
1 11
21 22
21 23
21 24
1 21
3 25
